(set-logic QF_S)
(declare-fun var0 () String)
(assert (str.in.re var0 (re.++ (re.+ (re.* (str.to.re "000"))) (re.++ (re.* (re.+ (str.to.re "111"))) (re.++ (re.+ (re.* (str.to.re "222"))) (re.++ (re.+ (re.* (str.to.re "33"))) (re.++ (re.+ (re.* (str.to.re "444"))) (re.++ (re.* (re.* (str.to.re "555"))) (re.++ (re.+ (re.* (str.to.re "66"))) (re.++ (re.+ (re.union (str.to.re "777") (str.to.re "88"))) (re.++ (re.+ (re.* (str.to.re "999"))) (re.++ (re.* (re.* (str.to.re "aa"))) (re.++ (re.union (re.* (str.to.re "bbb")) (re.* (str.to.re "ccc"))) (re.++ (re.* (re.* (str.to.re "ddd"))) (re.++ (re.union (re.+ (str.to.re "ee")) (re.+ (str.to.re "ff"))) (re.++ (re.* (re.union (str.to.re "ggg") (str.to.re "h"))) (re.++ (re.union (re.* (str.to.re "ii")) (re.* (str.to.re "jj"))) (re.++ (re.+ (re.* (str.to.re "kk"))) (re.++ (re.+ (re.* (str.to.re "lll"))) (re.++ (re.* (re.+ (str.to.re "m"))) (re.++ (re.+ (re.union (str.to.re "nn") (str.to.re "oo"))) (re.++ (re.+ (re.union (str.to.re "p") (str.to.re "q"))) (re.++ (re.+ (re.union (str.to.re "rrr") (str.to.re "sss"))) (re.++ (re.union (re.* (str.to.re "tt")) (re.* (str.to.re "u"))) (re.++ (re.union (re.+ (str.to.re "v")) (re.+ (str.to.re "ww"))) (re.++ (re.union (re.union (str.to.re "xx") (str.to.re "yyy")) (re.union (str.to.re "zzz") (str.to.re "A"))) (re.++ (re.union (re.* (str.to.re "B")) (re.* (str.to.re "CCC"))) (re.++ (re.union (re.union (str.to.re "DDD") (str.to.re "E")) (re.union (str.to.re "F") (str.to.re "G"))) (re.++ (re.union (re.union (str.to.re "HH") (str.to.re "III")) (re.union (str.to.re "JJJ") (str.to.re "KK"))) (re.++ (re.+ (re.union (str.to.re "L") (str.to.re "MMM"))) (re.++ (re.union (re.+ (str.to.re "NNN")) (re.+ (str.to.re "OOO"))) (re.++ (re.* (re.* (str.to.re "PP"))) (re.++ (re.* (re.union (str.to.re "QQQ") (str.to.re "RR"))) (re.++ (re.union (re.* (str.to.re "S")) (re.* (str.to.re "TT"))) (re.++ (re.union (re.union (str.to.re "UU") (str.to.re "VVV")) (re.union (str.to.re "W") (str.to.re "XXX"))) (re.++ (re.+ (re.+ (str.to.re "YYY"))) (re.++ (re.* (re.+ (str.to.re "Z"))) (re.++ (re.* (re.union (str.to.re "!!") (str.to.re """"""""))) (re.++ (re.union (re.union (str.to.re "###") (str.to.re "$$")) (re.union (str.to.re "%") (str.to.re "&&&"))) (re.++ (re.* (re.+ (str.to.re "'''"))) (re.++ (re.+ (re.* (str.to.re "(("))) (re.++ (re.* (re.+ (str.to.re ")"))) (re.++ (re.* (re.+ (str.to.re "*"))) (re.++ (re.* (re.+ (str.to.re "++"))) (re.++ (re.* (re.* (str.to.re ",,,"))) (re.++ (re.* (re.* (str.to.re "-"))) (re.++ (re.union (re.+ (str.to.re ".")) (re.+ (str.to.re "///"))) (re.++ (re.* (re.union (str.to.re ":") (str.to.re ";;"))) (re.++ (re.union (re.+ (str.to.re "<")) (re.+ (str.to.re "=="))) (re.++ (re.+ (re.* (str.to.re ">>>"))) (re.++ (re.* (re.union (str.to.re "?") (str.to.re "@@@"))) (re.++ (re.* (re.+ (str.to.re "["))) (re.++ (re.+ (re.union (str.to.re "\\\\\\") (str.to.re "]"))) (re.++ (re.union (re.union (str.to.re "^") (str.to.re "__")) (re.union (str.to.re "```") (str.to.re "{{{"))) (re.++ (re.+ (re.+ (str.to.re "|||"))) (re.++ (re.+ (re.* (str.to.re "}"))) (re.++ (re.+ (re.+ (str.to.re "~~~"))) (re.++ (re.+ (re.+ (str.to.re "00"))) (re.++ (re.+ (re.union (str.to.re "1") (str.to.re "22"))) (re.++ (re.union (re.union (str.to.re "33") (str.to.re "44")) (re.union (str.to.re "5") (str.to.re "6"))) (re.++ (re.* (re.* (str.to.re "77"))) (re.++ (re.+ (re.+ (str.to.re "88"))) (re.++ (re.* (re.+ (str.to.re "999"))) (re.++ (re.union (re.union (str.to.re "aa") (str.to.re "b")) (re.union (str.to.re "cc") (str.to.re "dd"))) (re.++ (re.union (re.* (str.to.re "eee")) (re.* (str.to.re "fff"))) (re.++ (re.+ (re.+ (str.to.re "gg"))) (re.++ (re.* (re.+ (str.to.re "hhh"))) (re.++ (re.+ (re.+ (str.to.re "iii"))) (re.++ (re.union (re.union (str.to.re "jjj") (str.to.re "kk")) (re.union (str.to.re "ll") (str.to.re "mmm"))) (re.++ (re.union (re.+ (str.to.re "n")) (re.+ (str.to.re "o"))) (re.++ (re.union (re.union (str.to.re "ppp") (str.to.re "qq")) (re.union (str.to.re "r") (str.to.re "ss"))) (re.++ (re.union (re.* (str.to.re "ttt")) (re.* (str.to.re "u"))) (re.++ (re.+ (re.* (str.to.re "vv"))) (re.++ (re.union (re.union (str.to.re "w") (str.to.re "x")) (re.union (str.to.re "y") (str.to.re "z"))) (re.++ (re.+ (re.+ (str.to.re "A"))) (re.++ (re.+ (re.union (str.to.re "B") (str.to.re "CC"))) (re.++ (re.* (re.union (str.to.re "D") (str.to.re "EE"))) (re.++ (re.* (re.+ (str.to.re "FFF"))) (re.++ (re.* (re.* (str.to.re "G"))) (re.++ (re.+ (re.union (str.to.re "HH") (str.to.re "II"))) (re.++ (re.* (re.+ (str.to.re "J"))) (re.++ (re.* (re.+ (str.to.re "KKK"))) (re.++ (re.union (re.union (str.to.re "L") (str.to.re "MMM")) (re.union (str.to.re "NNN") (str.to.re "OO"))) (re.++ (re.union (re.union (str.to.re "P") (str.to.re "QQQ")) (re.union (str.to.re "RR") (str.to.re "SS"))) (re.++ (re.+ (re.* (str.to.re "TT"))) (re.++ (re.* (re.union (str.to.re "UU") (str.to.re "VVV"))) (re.+ (re.+ (str.to.re "WW")))))))))))))))))))))))))))))))))))))))))))))))))))))))))))))))))))))))))))))))))))))))))
(check-sat)